data/CVRPLIB/Vrp-Set-XML100/instances/XML100_1216_17.vrp
NAME : XML100_1216_17
COMMENT : Generated by Queiroga, Sadykov, Uchoa, and Vidal (2021)
TYPE : CVRP
DIMENSION : 101
EDGE_WEIGHT_TYPE : EUC_2D
CAPACITY : 25
NODE_COORD_SECTION
1    919  663 
2    219  50  
3    235  181 
4    298  470 
5    272  76  
6    41   340 
7    265  424 
8    225  251 
9    278  400 
10   235  225 
11   233  210 
12   192  229 
13   455  118 
14   210  289 
15   428  181 
16   317  231 
17   293  491 
18   321  2   
19   256  12  
20   266  59  
21   307  471 
22   37   165 
23   287  235 
24   311  241 
25   203  456 
26   343  149 
27   223  247 
28   466  435 
29   219  297 
30   191  255 
31   131  15  
32   164  164 
33   231  97  
34   399  415 
35   231  209 
36   134  105 
37   249  324 
38   207  258 
39   188  60  
40   474  444 
41   238  236 
42   178  19  
43   525  371 
44   98   346 
45   243  349 
46   263  155 
47   170  173 
48   318  438 
49   321  514 
50   354  489 
51   317  73  
52   325  12  
53   259  385 
54   232  346 
55   213  465 
56   163  337 
57   341  429 
58   267  518 
59   356  423 
60   299  126 
61   93   170 
62   117  36  
63   308  79  
64   158  283 
65   122  410 
66   400  29  
67   162  354 
68   208  269 
69   230  147 
70   203  423 
71   243  102 
72   223  196 
73   360  416 
74   227  392 
75   285  417 
76   133  352 
77   283  40  
78   174  394 
79   259  451 
80   586  550 
81   439  416 
82   316  76  
83   275  8   
84   342  143 
85   237  91  
86   336  410 
87   244  51  
88   269  244 
89   492  156 
90   284  71  
91   317  540 
92   94   125 
93   319  451 
94   276  89  
95   317  477 
96   284  427 
97   437  180 
98   310  328 
99   199  342 
100  263  225 
101  272  169 
DEMAND_SECTION
1    0   
2    1   
3    1   
4    1   
5    1   
6    1   
7    1   
8    1   
9    1   
10   1   
11   1   
12   1   
13   1   
14   1   
15   1   
16   1   
17   1   
18   1   
19   1   
20   1   
21   1   
22   1   
23   1   
24   1   
25   1   
26   1   
27   1   
28   1   
29   1   
30   1   
31   1   
32   1   
33   1   
34   1   
35   1   
36   1   
37   1   
38   1   
39   1   
40   1   
41   1   
42   1   
43   1   
44   1   
45   1   
46   1   
47   1   
48   1   
49   1   
50   1   
51   1   
52   1   
53   1   
54   1   
55   1   
56   1   
57   1   
58   1   
59   1   
60   1   
61   1   
62   1   
63   1   
64   1   
65   1   
66   1   
67   1   
68   1   
69   1   
70   1   
71   1   
72   1   
73   1   
74   1   
75   1   
76   1   
77   1   
78   1   
79   1   
80   1   
81   1   
82   1   
83   1   
84   1   
85   1   
86   1   
87   1   
88   1   
89   1   
90   1   
91   1   
92   1   
93   1   
94   1   
95   1   
96   1   
97   1   
98   1   
99   1   
100  1   
101  1   
DEPOT_SECTION
1
-1
EOF
