data/CVRPLIB/Vrp-Set-XML100/solutions/XML100_1216_17.sol
Route #1: 96 14 25 83 59 81 50 62 89 4 93 70 84 32 68 2 71 34 10 9 40 99 87 22 23
Route #2: 90 48 16 57 54 24 69 77 64 5 43 75 66 55 63 29 11 26 7 37 67 13 28 36 97
Route #3: 39 27 80 33 72 58 85 56 47 92 95 74 8 52 44 53 98 73 6 78 3 20 94 49 79
Route #4: 42 15 100 45 46 31 60 21 91 35 61 30 41 38 1 86 19 76 18 82 17 51 65 12 88
Cost 8388
